NAME: bip_20_4
TYPE: TSP
COMMENT: bip_20_4
DIMENSION: 20
EDGE_WEIGHT_TYPE: EUC_2D
NODE_COORD_SECTION
1 71 2
2 62 92
3 4 99
4 89 75
5 28 30
6 11 89
7 52 1
8 32 7
9 40 0
10 41 26
11 475 404
12 483 447
13 442 480
14 430 411
15 401 486
16 485 493
17 499 481
18 462 409
19 413 484
20 445 477
